presolving:
(round 1, fast)       1068 del vars, 336 del conss, 0 add conss, 6908 chg bounds, 0 chg sides, 0 chg coeffs, 0 upgd conss, 0 impls, 0 clqs
(round 2, fast)       1103 del vars, 336 del conss, 0 add conss, 6908 chg bounds, 0 chg sides, 0 chg coeffs, 0 upgd conss, 0 impls, 0 clqs
   (0.1s) running MILP presolver
   (0.1s) MILP presolver found nothing
(round 3, exhaustive) 1103 del vars, 336 del conss, 0 add conss, 6908 chg bounds, 0 chg sides, 0 chg coeffs, 6 upgd conss, 0 impls, 0 clqs
(round 4, fast)       1124 del vars, 342 del conss, 0 add conss, 6908 chg bounds, 0 chg sides, 0 chg coeffs, 6 upgd conss, 0 impls, 0 clqs
   (0.1s) probing: 51/235 (21.7%) - 0 fixings, 0 aggregations, 0 implications, 0 bound changes
   (0.1s) probing aborted: 50/50 successive totally useless probings
   (0.1s) symmetry computation started: requiring (bin +, int -, cont +), (fixed: bin -, int +, cont -)
   (0.1s) no symmetry present
presolving (5 rounds: 5 fast, 2 medium, 2 exhaustive):
 1124 deleted vars, 342 deleted constraints, 0 added constraints, 6908 tightened bounds, 0 added holes, 0 changed sides, 0 changed coefficients
 0 implications, 0 cliques
presolved problem has 7132 variables (235 bin, 0 int, 0 impl, 6897 cont) and 1093 constraints
   1093 constraints of type <linear>
Presolving Time: 0.11

 time | node  | left  |LP iter|LP it/n|mem/heur|mdpt |vars |cons |rows |cuts |sepa|confs|strbr|  dualbound   | primalbound  |  gap   | compl. 
p 0.1s|     1 |     0 |   214 |     - |   locks|   0 |7132 |1093 |1093 |   0 |  0 |   0 |   0 | 1.910000e+02 | 7.022963e+05 |  Large | unknown
i 0.2s|     1 |     0 |   214 |     - |  oneopt|   0 |7132 |1093 |1093 |   0 |  0 |   0 |   0 | 1.910000e+02 | 2.440063e+05 |  Large | unknown
  0.2s|     1 |     0 |   761 |     - |    60M |   0 |7132 |1093 |1093 |   0 |  0 |   0 |   0 | 1.231461e+05 | 2.440063e+05 |  98.14%| unknown
r 0.2s|     1 |     0 |   761 |     - |simplero|   0 |7132 |1093 |1093 |   0 |  0 |   0 |   0 | 1.231461e+05 | 2.161904e+05 |  75.56%| unknown
  0.2s|     1 |     0 |   827 |     - |    63M |   0 |7132 |1093 |1101 |  15 |  1 |   0 |   0 | 1.305303e+05 | 2.161904e+05 |  65.62%| unknown
  0.3s|     1 |     0 |  1091 |     - |    65M |   0 |7132 |1093 |1131 |  47 |  2 |   0 |   0 | 1.491593e+05 | 2.161904e+05 |  44.94%| unknown
  0.3s|     1 |     0 |  1252 |     - |    65M |   0 |7132 |1093 |1148 |  64 |  3 |   0 |   0 | 1.562991e+05 | 2.161904e+05 |  38.32%| unknown
  0.5s|     1 |     0 |  1700 |     - |    66M |   0 |7132 |1093 |1188 | 104 |  4 |   0 |   0 | 1.662955e+05 | 2.161904e+05 |  30.00%| unknown
  0.6s|     1 |     0 |  1911 |     - |    67M |   0 |7132 |1093 |1215 | 131 |  5 |   0 |   0 | 1.698356e+05 | 2.161904e+05 |  27.29%| unknown
  0.8s|     1 |     0 |  2315 |     - |    68M |   0 |7132 |1093 |1233 | 149 |  6 |   0 |   0 | 1.734152e+05 | 2.161904e+05 |  24.67%| unknown
  0.9s|     1 |     0 |  2574 |     - |    68M |   0 |7132 |1093 |1245 | 161 |  7 |   0 |   0 | 1.746883e+05 | 2.161904e+05 |  23.76%| unknown
  1.0s|     1 |     0 |  2825 |     - |    68M |   0 |7132 |1093 |1254 | 170 |  8 |   0 |   0 | 1.755126e+05 | 2.161904e+05 |  23.18%| unknown
  1.2s|     1 |     0 |  3194 |     - |    68M |   0 |7132 |1093 |1280 | 196 |  9 |   0 |   0 | 1.770242e+05 | 2.161904e+05 |  22.12%| unknown
  1.4s|     1 |     0 |  3510 |     - |    68M |   0 |7132 |1093 |1307 | 223 | 10 |   0 |   0 | 1.779396e+05 | 2.161904e+05 |  21.50%| unknown
  1.5s|     1 |     0 |  3680 |     - |    69M |   0 |7132 |1093 |1323 | 239 | 11 |   0 |   0 | 1.784024e+05 | 2.161904e+05 |  21.18%| unknown
 time | node  | left  |LP iter|LP it/n|mem/heur|mdpt |vars |cons |rows |cuts |sepa|confs|strbr|  dualbound   | primalbound  |  gap   | compl. 
  1.6s|     1 |     0 |  3772 |     - |    69M |   0 |7132 |1093 |1333 | 249 | 12 |   0 |   0 | 1.785595e+05 | 2.161904e+05 |  21.07%| unknown
  1.7s|     1 |     0 |  3976 |     - |    71M |   0 |7132 |1093 |1343 | 259 | 13 |   0 |   0 | 1.787747e+05 | 2.161904e+05 |  20.93%| unknown
  1.8s|     1 |     0 |  4196 |     - |    71M |   0 |7132 |1093 |1351 | 267 | 14 |   0 |   0 | 1.790699e+05 | 2.161904e+05 |  20.73%| unknown
  2.0s|     1 |     0 |  4407 |     - |    72M |   0 |7132 |1093 |1359 | 275 | 15 |   0 |   0 | 1.796080e+05 | 2.161904e+05 |  20.37%| unknown
  2.1s|     1 |     0 |  4507 |     - |    72M |   0 |7132 |1093 |1344 | 282 | 16 |   0 |   0 | 1.797551e+05 | 2.161904e+05 |  20.27%| unknown
  2.3s|     1 |     0 |  4824 |     - |    72M |   0 |7132 |1093 |1366 | 304 | 17 |   0 |   0 | 1.801318e+05 | 2.161904e+05 |  20.02%| unknown
  2.4s|     1 |     0 |  4956 |     - |    73M |   0 |7132 |1093 |1375 | 313 | 18 |   0 |   0 | 1.802356e+05 | 2.161904e+05 |  19.95%| unknown
  2.5s|     1 |     0 |  5013 |     - |    73M |   0 |7132 |1093 |1382 | 320 | 19 |   0 |   0 | 1.802921e+05 | 2.161904e+05 |  19.91%| unknown
  2.6s|     1 |     0 |  5076 |     - |    73M |   0 |7132 |1093 |1386 | 324 | 20 |   0 |   0 | 1.803339e+05 | 2.161904e+05 |  19.88%| unknown
  2.7s|     1 |     0 |  5177 |     - |    73M |   0 |7132 |1093 |1398 | 336 | 21 |   0 |   0 | 1.803898e+05 | 2.161904e+05 |  19.85%| unknown
  2.8s|     1 |     0 |  5270 |     - |    73M |   0 |7132 |1093 |1375 | 345 | 22 |   0 |   0 | 1.804226e+05 | 2.161904e+05 |  19.82%| unknown
  3.0s|     1 |     0 |  5565 |     - |    73M |   0 |7132 |1093 |1405 | 375 | 23 |   0 |   0 | 1.804917e+05 | 2.161904e+05 |  19.78%| unknown
  3.1s|     1 |     0 |  5694 |     - |    73M |   0 |7132 |1093 |1412 | 382 | 24 |   0 |   0 | 1.805461e+05 | 2.161904e+05 |  19.74%| unknown
  3.2s|     1 |     0 |  5801 |     - |    73M |   0 |7132 |1093 |1421 | 391 | 25 |   0 |   0 | 1.805883e+05 | 2.161904e+05 |  19.71%| unknown
  3.3s|     1 |     0 |  5970 |     - |    73M |   0 |7132 |1093 |1436 | 406 | 26 |   0 |   0 | 1.806520e+05 | 2.161904e+05 |  19.67%| unknown
 time | node  | left  |LP iter|LP it/n|mem/heur|mdpt |vars |cons |rows |cuts |sepa|confs|strbr|  dualbound   | primalbound  |  gap   | compl. 
  3.4s|     1 |     0 |  6107 |     - |    74M |   0 |7132 |1093 |1447 | 417 | 27 |   0 |   0 | 1.807094e+05 | 2.161904e+05 |  19.63%| unknown
  3.5s|     1 |     0 |  6222 |     - |    74M |   0 |7132 |1093 |1417 | 428 | 28 |   0 |   0 | 1.807393e+05 | 2.161904e+05 |  19.61%| unknown
  3.7s|     1 |     0 |  6415 |     - |    75M |   0 |7132 |1093 |1423 | 434 | 29 |   0 |   0 | 1.807649e+05 | 2.161904e+05 |  19.60%| unknown
  3.8s|     1 |     0 |  6492 |     - |    75M |   0 |7132 |1093 |1433 | 444 | 30 |   0 |   0 | 1.807804e+05 | 2.161904e+05 |  19.59%| unknown
  3.9s|     1 |     0 |  6763 |     - |    76M |   0 |7132 |1093 |1447 | 458 | 31 |   0 |   0 | 1.808459e+05 | 2.161904e+05 |  19.54%| unknown
  4.1s|     1 |     0 |  6977 |     - |    76M |   0 |7132 |1093 |1453 | 464 | 32 |   0 |   0 | 1.808831e+05 | 2.161904e+05 |  19.52%| unknown
  4.2s|     1 |     0 |  7094 |     - |    76M |   0 |7132 |1093 |1463 | 474 | 33 |   0 |   0 | 1.808968e+05 | 2.161904e+05 |  19.51%| unknown
  4.3s|     1 |     0 |  7372 |     - |    76M |   0 |7132 |1093 |1430 | 480 | 34 |   0 |   0 | 1.809177e+05 | 2.161904e+05 |  19.50%| unknown
  4.4s|     1 |     0 |  7557 |     - |    76M |   0 |7132 |1093 |1437 | 487 | 35 |   0 |   0 | 1.809635e+05 | 2.161904e+05 |  19.47%| unknown
  4.5s|     1 |     0 |  7693 |     - |    76M |   0 |7132 |1093 |1451 | 501 | 36 |   0 |   0 | 1.809737e+05 | 2.161904e+05 |  19.46%| unknown
  4.7s|     1 |     0 |  7838 |     - |    76M |   0 |7132 |1093 |1458 | 508 | 37 |   0 |   0 | 1.809973e+05 | 2.161904e+05 |  19.44%| unknown
  4.8s|     1 |     0 |  7996 |     - |    76M |   0 |7132 |1093 |1469 | 519 | 38 |   0 |   0 | 1.810115e+05 | 2.161904e+05 |  19.43%| unknown
  5.0s|     1 |     0 |  8166 |     - |    76M |   0 |7132 |1093 |1477 | 527 | 39 |   0 |   0 | 1.810342e+05 | 2.161904e+05 |  19.42%| unknown
  5.1s|     1 |     0 |  8304 |     - |    76M |   0 |7132 |1093 |1442 | 536 | 40 |   0 |   0 | 1.810656e+05 | 2.161904e+05 |  19.40%| unknown
  5.2s|     1 |     0 |  8438 |     - |    77M |   0 |7132 |1093 |1453 | 547 | 41 |   0 |   0 | 1.810800e+05 | 2.161904e+05 |  19.39%| unknown
 time | node  | left  |LP iter|LP it/n|mem/heur|mdpt |vars |cons |rows |cuts |sepa|confs|strbr|  dualbound   | primalbound  |  gap   | compl. 
  5.4s|     1 |     0 |  8506 |     - |    77M |   0 |7132 |1093 |1458 | 552 | 42 |   0 |   0 | 1.810910e+05 | 2.161904e+05 |  19.38%| unknown
  5.5s|     1 |     0 |  8569 |     - |    77M |   0 |7132 |1093 |1469 | 563 | 43 |   0 |   0 | 1.810962e+05 | 2.161904e+05 |  19.38%| unknown
  5.6s|     1 |     0 |  8684 |     - |    77M |   0 |7132 |1093 |1475 | 570 | 44 |   0 |   0 | 1.811082e+05 | 2.161904e+05 |  19.37%| unknown
  5.7s|     1 |     0 |  8741 |     - |    77M |   0 |7132 |1093 |1480 | 575 | 45 |   0 |   0 | 1.811202e+05 | 2.161904e+05 |  19.36%| unknown
  5.8s|     1 |     0 |  8783 |     - |    77M |   0 |7132 |1093 |1433 | 577 | 46 |   0 |   0 | 1.811310e+05 | 2.161904e+05 |  19.36%| unknown
  5.9s|     1 |     0 |  8916 |     - |    78M |   0 |7132 |1093 |1439 | 583 | 47 |   0 |   0 | 1.811358e+05 | 2.161904e+05 |  19.35%| unknown
  6.1s|     1 |     0 |  9094 |     - |    78M |   0 |7132 |1093 |1445 | 589 | 48 |   0 |   0 | 1.811406e+05 | 2.161904e+05 |  19.35%| unknown
  6.2s|     1 |     0 |  9209 |     - |    78M |   0 |7132 |1093 |1448 | 592 | 49 |   0 |   0 | 1.811489e+05 | 2.161904e+05 |  19.34%| unknown
  6.4s|     1 |     0 |  9329 |     - |    78M |   0 |7132 |1093 |1456 | 600 | 50 |   0 |   0 | 1.811541e+05 | 2.161904e+05 |  19.34%| unknown
L10.0s|     1 |     0 | 22993 |     - |    alns|   0 |7132 |1093 |1456 | 600 | 50 |   0 |   0 | 1.811541e+05 | 2.158400e+05 |  19.15%| unknown
 10.0s|     1 |     0 | 22993 |     - |    85M |   0 |7132 |1093 |1456 | 600 | 50 |   0 |   0 | 1.811541e+05 | 2.158400e+05 |  19.15%| unknown
i10.7s|     1 |     0 | 26052 |     - |  oneopt|   0 |7132 |1093 |1456 | 600 | 50 |   0 |   0 | 1.811541e+05 | 2.094298e+05 |  15.61%| unknown
 10.8s|     1 |     0 | 26203 |     - |    85M |   0 |7132 |1093 |1462 | 606 | 51 |   0 |   0 | 1.811601e+05 | 2.094298e+05 |  15.60%| unknown
 10.9s|     1 |     0 | 26389 |     - |    85M |   0 |7132 |1093 |1471 | 615 | 52 |   0 |   0 | 1.811647e+05 | 2.094298e+05 |  15.60%| unknown
 10.9s|     1 |     0 | 26458 |     - |    85M |   0 |7132 |1093 |1479 | 623 | 53 |   0 |   0 | 1.811665e+05 | 2.094298e+05 |  15.60%| unknown
 time | node  | left  |LP iter|LP it/n|mem/heur|mdpt |vars |cons |rows |cuts |sepa|confs|strbr|  dualbound   | primalbound  |  gap   | compl. 
*13.6s|     1 |     0 | 26458 |     - |strongbr|   0 |7132 |1093 |1479 | 623 | 53 |   0 |  10 | 1.811665e+05 | 1.891162e+05 |   4.39%| unknown
 21.5s|     1 |     2 | 26458 |     - |    85M |   0 |7132 |1093 |1479 | 623 | 53 |   0 |  49 | 1.813566e+05 | 1.891162e+05 |   4.28%| unknown
(run 1, node 1) restarting after 10 global fixings of integer variables

(restart) converted 380 cuts from the global cut pool into linear constraints

presolving:
(round 1, fast)       10 del vars, 1 del conss, 0 add conss, 0 chg bounds, 0 chg sides, 0 chg coeffs, 0 upgd conss, 0 impls, 0 clqs
(round 2, exhaustive) 10 del vars, 1 del conss, 0 add conss, 0 chg bounds, 0 chg sides, 0 chg coeffs, 3 upgd conss, 0 impls, 0 clqs
presolving (3 rounds: 3 fast, 2 medium, 2 exhaustive):
 10 deleted vars, 1 deleted constraints, 0 added constraints, 0 tightened bounds, 0 added holes, 0 changed sides, 0 changed coefficients
 0 implications, 0 cliques
presolved problem has 7122 variables (225 bin, 0 int, 0 impl, 6897 cont) and 1472 constraints
   1469 constraints of type <linear>
      3 constraints of type <logicor>
Presolving Time: 0.23
transformed 100/100 original solutions to the transformed problem space

 time | node  | left  |LP iter|LP it/n|mem/heur|mdpt |vars |cons |rows |cuts |sepa|confs|strbr|  dualbound   | primalbound  |  gap   | compl. 
i21.7s|     1 |     0 | 26458 |     - |  oneopt|   0 |7122 |1472 |1472 |   0 |  0 |   0 |  49 | 1.813566e+05 | 1.891012e+05 |   4.27%| unknown
 22.9s|     1 |     0 | 32186 |     - |   102M |   0 |7122 |1472 |1472 |   0 |  0 |   0 |  49 | 1.813566e+05 | 1.891012e+05 |   4.27%| unknown
 23.3s|     1 |     0 | 33208 |     - |   102M |   0 |7122 |1472 |1495 |  23 |  1 |   0 |  49 | 1.813566e+05 | 1.891012e+05 |   4.27%| unknown
 23.5s|     1 |     0 | 33383 |     - |   103M |   0 |7122 |1472 |1502 |  30 |  2 |   0 |  49 | 1.813566e+05 | 1.891012e+05 |   4.27%| unknown
 23.7s|     1 |     0 | 33580 |     - |   103M |   0 |7122 |1473 |1513 |  41 |  3 |   1 |  49 | 1.813566e+05 | 1.891012e+05 |   4.27%| unknown
 23.9s|     1 |     0 | 33661 |     - |   103M |   0 |7122 |1473 |1521 |  49 |  4 |   1 |  49 | 1.813566e+05 | 1.891012e+05 |   4.27%| unknown
 24.1s|     1 |     0 | 33898 |     - |   103M |   0 |7122 |1473 |1532 |  60 |  5 |   1 |  49 | 1.813566e+05 | 1.891012e+05 |   4.27%| unknown
 24.3s|     1 |     0 | 33961 |     - |   103M |   0 |7122 |1473 |1536 |  64 |  6 |   1 |  49 | 1.813566e+05 | 1.891012e+05 |   4.27%| unknown
 24.4s|     1 |     0 | 34045 |     - |   104M |   0 |7122 |1473 |1539 |  67 |  7 |   1 |  49 | 1.813566e+05 | 1.891012e+05 |   4.27%| unknown
 24.6s|     1 |     0 | 34311 |     - |   104M |   0 |7122 |1473 |1547 |  75 |  8 |   1 |  49 | 1.813566e+05 | 1.891012e+05 |   4.27%| unknown
 24.8s|     1 |     0 | 34463 |     - |   104M |   0 |7122 |1473 |1555 |  83 |  9 |   1 |  49 | 1.813566e+05 | 1.891012e+05 |   4.27%| unknown
 25.0s|     1 |     0 | 34653 |     - |   104M |   0 |7122 |1473 |1563 |  91 | 10 |   1 |  49 | 1.813566e+05 | 1.891012e+05 |   4.27%| unknown
 25.1s|     1 |     0 | 34732 |     - |   104M |   0 |7122 |1473 |1567 |  95 | 11 |   1 |  49 | 1.813566e+05 | 1.891012e+05 |   4.27%| unknown
 25.3s|     1 |     0 | 34840 |     - |   104M |   0 |7122 |1473 |1470 | 105 | 12 |   1 |  49 | 1.813566e+05 | 1.891012e+05 |   4.27%| unknown
 32.9s|     1 |     2 | 41042 |     - |   104M |   0 |7122 |1475 |1470 | 105 | 12 | 156 |  74 | 1.813566e+05 | 1.891012e+05 |   4.27%| unknown
 time | node  | left  |LP iter|LP it/n|mem/heur|mdpt |vars |cons |rows |cuts |sepa|confs|strbr|  dualbound   | primalbound  |  gap   | compl. 
*66.1s|    34 |     3 | 65486 |1309.5 |    LP  |  18 |7122 |1476 |1385 | 176 |  3 | 159 | 298 | 1.813722e+05 | 1.815697e+05 |   0.11%|  36.31%

SCIP Status        : problem is solved [optimal solution found]
Solving Time (sec) : 66.21
Solving Nodes      : 37 (total of 38 nodes in 2 runs)
Primal Bound       : +1.81569682995217e+05 (198 solutions)
Dual Bound         : +1.81569682995217e+05
Gap                : 0.00 %
Solve Status: optimal
Solve Time: 66.22 seconds
